HorasDisponibles = 24 ; 		% Cantidad de horas habiles para que barco pueda partir

NumBarcos = 50 ; 		% Cantidad de barcos que cruzaran el canal

NumCanales = 3;  

Velocidades = [ 
66000  ,		%  Barco 1
66000  ,		%  Barco 2
66000  ,		%  Barco 3
503  ,		%  Barco 4
312  ,		%  Barco 5
642  ,		%  Barco 6
325  ,		%  Barco 7
582  ,		%  Barco 8
716  ,		%  Barco 9
577  ,		%  Barco 10
551  ,		%  Barco 11
295  ,		%  Barco 12
514  ,		%  Barco 13
449  ,		%  Barco 14
869  ,		%  Barco 15
512  ,		%  Barco 16
262  ,		%  Barco 17
495  ,		%  Barco 18
350  ,		%  Barco 19
402  ,		%  Barco 20
482  ,		%  Barco 21
459  ,		%  Barco 22
397  ,		%  Barco 23
637  ,		%  Barco 24
656  ,		%  Barco 25
369  ,		%  Barco 26
836  ,		%  Barco 27
506  ,		%  Barco 28
776  ,		%  Barco 29
593  ,		%  Barco 30
502  ,		%  Barco 31
671  ,		%  Barco 32
389  ,		%  Barco 33
316  ,		%  Barco 34
319  ,		%  Barco 35
472  ,		%  Barco 36
568  ,		%  Barco 37
390  ,		%  Barco 38
680  ,		%  Barco 39
479  ,		%  Barco 40
402  ,		%  Barco 41
467  ,		%  Barco 42
510  ,		%  Barco 43
380  ,		%  Barco 44
567  ,		%  Barco 45
595  ,		%  Barco 46
863  ,		%  Barco 47
635  ,		%  Barco 48
248  ,		%  Barco 49
673  ,		%  Barco 50
405  ,		%  Barco 51
581  ,		%  Barco 52
715  ,		%  Barco 53
66000  ,		%  Barco 54
66000  ,		%  Barco 55
66000  ,		%  Barco 56
 ]; 
HoraEstimadaCruce = [ 
0  ,		%  Barco 1
0  ,		%  Barco 2
0  ,		%  Barco 3
1  ,		%  Barco 4
10  ,		%  Barco 5
19  ,		%  Barco 6
7  ,		%  Barco 7
8  ,		%  Barco 8
24  ,		%  Barco 9
10  ,		%  Barco 10
18  ,		%  Barco 11
8  ,		%  Barco 12
5  ,		%  Barco 13
3  ,		%  Barco 14
6  ,		%  Barco 15
3  ,		%  Barco 16
7  ,		%  Barco 17
17  ,		%  Barco 18
11  ,		%  Barco 19
8  ,		%  Barco 20
13  ,		%  Barco 21
2  ,		%  Barco 22
16  ,		%  Barco 23
0  ,		%  Barco 24
8  ,		%  Barco 25
4  ,		%  Barco 26
7  ,		%  Barco 27
24  ,		%  Barco 28
23  ,		%  Barco 29
5  ,		%  Barco 30
22  ,		%  Barco 31
3  ,		%  Barco 32
7  ,		%  Barco 33
7  ,		%  Barco 34
22  ,		%  Barco 35
23  ,		%  Barco 36
9  ,		%  Barco 37
0  ,		%  Barco 38
8  ,		%  Barco 39
11  ,		%  Barco 40
8  ,		%  Barco 41
6  ,		%  Barco 42
10  ,		%  Barco 43
7  ,		%  Barco 44
23  ,		%  Barco 45
14  ,		%  Barco 46
6  ,		%  Barco 47
20  ,		%  Barco 48
10  ,		%  Barco 49
1  ,		%  Barco 50
4  ,		%  Barco 51
23  ,		%  Barco 52
5  ,		%  Barco 53
24  ,		%  Barco 54
24  ,		%  Barco 55
24  ,		%  Barco 56
 ]; 
PuntoDeArranque = [ 
0  ,		%  Barco 1
0  ,		%  Barco 2
0  ,		%  Barco 3
0  ,		%  Barco 4
0  ,		%  Barco 5
1  ,		%  Barco 6
1  ,		%  Barco 7
1  ,		%  Barco 8
1  ,		%  Barco 9
1  ,		%  Barco 10
0  ,		%  Barco 11
1  ,		%  Barco 12
1  ,		%  Barco 13
1  ,		%  Barco 14
0  ,		%  Barco 15
1  ,		%  Barco 16
0  ,		%  Barco 17
1  ,		%  Barco 18
1  ,		%  Barco 19
0  ,		%  Barco 20
1  ,		%  Barco 21
0  ,		%  Barco 22
0  ,		%  Barco 23
1  ,		%  Barco 24
1  ,		%  Barco 25
1  ,		%  Barco 26
1  ,		%  Barco 27
0  ,		%  Barco 28
1  ,		%  Barco 29
0  ,		%  Barco 30
0  ,		%  Barco 31
1  ,		%  Barco 32
1  ,		%  Barco 33
0  ,		%  Barco 34
0  ,		%  Barco 35
0  ,		%  Barco 36
0  ,		%  Barco 37
0  ,		%  Barco 38
1  ,		%  Barco 39
0  ,		%  Barco 40
1  ,		%  Barco 41
0  ,		%  Barco 42
0  ,		%  Barco 43
0  ,		%  Barco 44
0  ,		%  Barco 45
0  ,		%  Barco 46
1  ,		%  Barco 47
0  ,		%  Barco 48
0  ,		%  Barco 49
1  ,		%  Barco 50
0  ,		%  Barco 51
0  ,		%  Barco 52
0  ,		%  Barco 53
0  ,		%  Barco 54
0  ,		%  Barco 55
0  ,		%  Barco 56
 ]; 
